20
93
119
119
121
122
130
183
191
193
210
211
221
231
239
311
311
391
391
399
810
811
822
1011
1012
1013
1021
1083
1091
1101
1103
1112
1121
1121
1121
1123
1128
1129
1131
1180
1192
1202
1211
1218
1219
1230
1293
1312
1380
1812
1913
1918
1931
2011
2013
2013
2031
2110
2111
2113
2118
2119
2119
2129
2190
2191
2211
2213
2219
2311
2389
2831
2911
3011
3029
3101
3129
3129
3129
3129
3190
3218
3281
3820
3902
3912
3918
3921
8031
8102
8112
8121
8290
8911
9111
9113
9201
9211
9231
9281
